TCS_Benchmarks/redos_fix/regexlib1_output_distinct_1713_1712_128_0.smt2
(set-logic QF_S)
(declare-const x String)
(assert (str.in.re x (re.inter  (re.++ (re.range "\u{33}" "\u{39}") (re.++ (re.range "\u{33}" "\u{39}") (re.range "\u{33}" "\u{39}")))  (re.++ (re.opt (re.range "\u{30}" "\u{39}") ) (re.++ (re.opt (re.range "\u{30}" "\u{39}") ) (re.opt (re.range "\u{30}" "\u{39}") ))) )))
(check-sat)
(get-model)