TCS_Benchmarks/redos_fix/regexlib1_output_distinct_1713_1712_128_0.txt
([3-9]){3}
(\d?){3}